p cnf 13 49
3 4 -9 0
-2 -4 -13 0
-1 8 9 0
4 -9 -10 0
3 7 -9 0
-1 4 10 0
-6 8 12 0
-2 9 -11 0
-5 -9 -10 0
-5 10 -12 0
4 5 6 0
-1 -8 -10 0
-5 7 -11 0
6 7 -13 0
-5 9 13 0
-7 -9 10 0
-1 -3 -4 0
2 5 -7 0
-3 9 13 0
-5 -9 11 0
-7 9 13 0
6 -8 -10 0
2 7 -11 0
1 -9 -11 0
3 4 7 0
3 6 -11 0
-2 6 -12 0
-2 -6 -8 0
1 -4 12 0
2 9 11 0
1 5 -11 0
2 5 -9 0
6 -10 -11 0
-2 7 13 0
2 -3 9 0
3 -10 -12 0
-2 9 13 0
-2 -11 13 0
-2 4 6 0
-10 -11 13 0
-2 -4 -10 0
2 -10 12 0
-3 10 -11 0
3 -8 10 0
6 7 -10 0
3 5 11 0
2 3 4 0
-3 -10 12 0
3 -6 -13 0
